
%FILE DATA:	Soccer Computational Problem for MiniZinc Models	%
%AUTHOR:	Jack Wall	%
%CONTACT:  	116397063@umail.ucc.ie			%
%LAST UPDATE:	03/16/2020, 13:59:12						%
%DESCRIPTION: 	140 games played with 42 games left				%


n=14; %number of teams

%Games to play
games=[|10,4|10,5|14,7|6,11|10,8|3,1|14,11|8,14|11,7|14,3|14,10|14,4|2,14|13,8|9,1|14,8|6,8|4,11|3,7|3,6|11,1|4,8|8,7|14,5|13,6|6,12|12,4|10,14|11,2|5,1|14,13|7,12|1,13|9,6|7,13|1,7|1,5|7,1|5,4|12,9|5,12|1,2|];

%Initial points
iPoints=[23,43,32,16,27,24,24,28,28,25,37,21,24,28];

%POSITION CONSTRAINTS
% [|teamID, operator, position|...]
% operators index:
%  1 for =  operator
%  2 for >  operator
%  3 for >= operator
%  4 for <  operator
%  5 for <= operator
positionConstraints=[|11,3,1|2,5,2|];